letting n =  10
letting blocks =  [[1, 5], [1, 8], [1, 10], [2, 6], [2, 8], [3, 7], [3, 8], [4, 2], [4, 4], [4, 8], [5, 2], [5, 4], [5, 5], [5, 8], [5, 9], [6, 6], [7, 2], [7, 3], [7, 4], [8, 3], [8, 5], [8, 7], [9, 2], [9, 6], [10, 4], [10, 6]]
